networks/zoo_60_350/zoo_60_350.sol
<?xml version = "1.0" encoding="UTF-8" standalone="yes"?>
<CPLEXSolution version="1.2">
 <header
   problemName="networks/zoo_60_350/zoo_60_350.lp"
   solutionName="incumbent"
   solutionIndex="-1"
   objectiveValue="37"
   solutionTypeValue="3"
   solutionTypeString="primal"
   solutionStatusValue="101"
   solutionStatusString="integer optimal solution"
   solutionMethodString="mip"
   primalFeasible="1"
   dualFeasible="1"
   MIPNodes="0"
   MIPIterations="1951"
   writeLevel="3"/>
 <quality
   epInt="1.0000000000000001e-05"
   epRHS="9.9999999999999995e-07"
   maxIntInfeas="0"
   maxPrimalInfeas="8.8817841970012523e-16"
   maxX="4"
   maxSlack="10"/>
 <variables>
  <variable name="Y(1,4)" index="3" value="1"/>
  <variable name="Y(6,24)" index="313" value="1"/>
  <variable name="Y(9,1)" index="464" value="1"/>
  <variable name="Y(11,3)" index="582" value="1"/>
  <variable name="Y(12,5)" index="642" value="1"/>
  <variable name="Y(15,8)" index="819" value="1"/>
  <variable name="Y(16,9)" index="878" value="1"/>
  <variable name="Y(17,11)" index="938" value="1"/>
  <variable name="Y(19,13)" index="1056" value="1"/>
  <variable name="Y(20,14)" index="1115" value="1"/>
  <variable name="Y(21,15)" index="1174" value="1"/>
  <variable name="Y(22,16)" index="1233" value="1"/>
  <variable name="Y(23,17)" index="1292" value="1"/>
  <variable name="Y(24,18)" index="1351" value="1"/>
  <variable name="Y(25,19)" index="1410" value="1"/>
  <variable name="Y(27,22)" index="1529" value="1"/>
  <variable name="Y(30,25)" index="1706" value="1"/>
  <variable name="Y(33,28)" index="1883" value="1"/>
  <variable name="Y(41,12)" index="2331" value="1"/>
  <variable name="Y(57,7)" index="3254" value="1"/>
  <variable name="Y(115,9)" index="6620" value="1"/>
  <variable name="Y(119,23)" index="6866" value="1"/>
  <variable name="Y(124,6)" index="7139" value="1"/>
  <variable name="Y(132,12)" index="7609" value="1"/>
  <variable name="Y(139,13)" index="8016" value="1"/>
  <variable name="Y(142,14)" index="8191" value="1"/>
  <variable name="Y(145,15)" index="8366" value="1"/>
  <variable name="Y(147,16)" index="8483" value="1"/>
  <variable name="Y(148,17)" index="8542" value="1"/>
  <variable name="Y(153,18)" index="8833" value="1"/>
  <variable name="Y(155,19)" index="8950" value="1"/>
  <variable name="Y(162,30)" index="9367" value="1"/>
  <variable name="Y(234,27)" index="13540" value="1"/>
  <variable name="Y(251,29)" index="14528" value="1"/>
  <variable name="Y(253,2)" index="14617" value="1"/>
  <variable name="Y(296,26)" index="17135" value="1"/>
  <variable name="Y(342,21)" index="19798" value="1"/>
  <variable name="X(1,21,1)" index="20300" value="1"/>
  <variable name="X(1,31,9)" index="20658" value="1"/>
  <variable name="X(2,32,253)" index="21252" value="1"/>
  <variable name="X(3,29,6)" index="21355" value="1"/>
  <variable name="X(3,33,11)" index="21710" value="1"/>
  <variable name="X(4,30,22)" index="22071" value="1"/>
  <variable name="X(4,34,1)" index="22400" value="1"/>
  <variable name="X(5,8,41)" index="22790" value="1"/>
  <variable name="X(5,35,12)" index="23111" value="1"/>
  <variable name="X(6,7,57)" index="23506" value="1"/>
  <variable name="X(6,36,124)" index="23923" value="1"/>
  <variable name="X(7,6,124)" index="24273" value="1"/>
  <variable name="X(7,8,15)" index="24514" value="1"/>
  <variable name="X(7,30,41)" index="24890" value="1"/>
  <variable name="X(7,37,57)" index="25256" value="1"/>
  <variable name="X(8,5,12)" index="25561" value="1"/>
  <variable name="X(8,7,41)" index="25940" value="1"/>
  <variable name="X(8,38,15)" index="26264" value="1"/>
  <variable name="X(9,30,115)" index="26714" value="1"/>
  <variable name="X(9,39,16)" index="26965" value="1"/>
  <variable name="X(10,30,119)" index="27418" value="1"/>
  <variable name="X(11,30,124)" index="27773" value="1"/>
  <variable name="X(11,41,17)" index="28016" value="1"/>
  <variable name="X(12,30,132)" index="28481" value="1"/>
  <variable name="X(12,42,41)" index="28740" value="1"/>
  <variable name="X(13,30,139)" index="29188" value="1"/>
  <variable name="X(13,43,19)" index="29418" value="1"/>
  <variable name="X(14,30,142)" index="29891" value="1"/>
  <variable name="X(14,44,20)" index="30119" value="1"/>
  <variable name="X(15,30,145)" index="30594" value="1"/>
  <variable name="X(15,45,21)" index="30820" value="1"/>
  <variable name="X(16,30,147)" index="31296" value="1"/>
  <variable name="X(16,46,22)" index="31521" value="1"/>
  <variable name="X(17,30,148)" index="31997" value="1"/>
  <variable name="X(17,47,23)" index="32222" value="1"/>
  <variable name="X(18,30,153)" index="32702" value="1"/>
  <variable name="X(18,48,24)" index="32923" value="1"/>
  <variable name="X(19,30,155)" index="33404" value="1"/>
  <variable name="X(19,49,25)" index="33624" value="1"/>
  <variable name="X(20,30,162)" index="34111" value="1"/>
  <variable name="X(21,1,9)" index="34308" value="1"/>
  <variable name="X(21,2,253)" index="34902" value="1"/>
  <variable name="X(21,23,1)" index="35000" value="1"/>
  <variable name="X(21,51,342)" index="35691" value="1"/>
  <variable name="X(22,52,27)" index="35726" value="1"/>
  <variable name="X(23,21,253)" index="36302" value="1"/>
  <variable name="X(23,24,6)" index="36405" value="1"/>
  <variable name="X(23,26,296)" index="37045" value="1"/>
  <variable name="X(23,27,234)" index="37333" value="1"/>
  <variable name="X(23,28,33)" index="37482" value="1"/>
  <variable name="X(23,29,251)" index="38050" value="1"/>
  <variable name="X(23,30,1)" index="38150" value="1"/>
  <variable name="X(23,53,119)" index="38618" value="1"/>
  <variable name="X(24,23,234)" index="39083" value="1"/>
  <variable name="X(24,25,30)" index="39229" value="1"/>
  <variable name="X(24,54,6)" index="39555" value="1"/>
  <variable name="X(25,24,234)" index="40133" value="1"/>
  <variable name="X(25,55,30)" index="40279" value="1"/>
  <variable name="X(26,23,251)" index="40850" value="1"/>
  <variable name="X(26,56,296)" index="41245" value="1"/>
  <variable name="X(27,23,253)" index="41552" value="1"/>
  <variable name="X(27,57,234)" index="41883" value="1"/>
  <variable name="X(28,23,296)" index="42295" value="1"/>
  <variable name="X(28,58,33)" index="42382" value="1"/>
  <variable name="X(29,3,11)" index="42710" value="1"/>
  <variable name="X(29,22,27)" index="43076" value="1"/>
  <variable name="X(29,23,6)" index="43405" value="1"/>
  <variable name="X(29,59,251)" index="44000" value="1"/>
  <variable name="X(30,4,1)" index="44100" value="1"/>
  <variable name="X(30,7,124)" index="44573" value="1"/>
  <variable name="X(30,9,16)" index="44815" value="1"/>
  <variable name="X(30,11,17)" index="45166" value="1"/>
  <variable name="X(30,12,41)" index="45540" value="1"/>
  <variable name="X(30,13,19)" index="45868" value="1"/>
  <variable name="X(30,14,20)" index="46219" value="1"/>
  <variable name="X(30,15,21)" index="46570" value="1"/>
  <variable name="X(30,16,22)" index="46921" value="1"/>
  <variable name="X(30,17,23)" index="47272" value="1"/>
  <variable name="X(30,18,24)" index="47623" value="1"/>
  <variable name="X(30,19,25)" index="47974" value="1"/>
  <variable name="X(30,23,119)" index="48418" value="1"/>
  <variable name="X(30,60,162)" index="48811" value="1"/>
  <variable name="C(1,21)" index="49001" value="1"/>
  <variable name="C(1,23)" index="49002" value="2"/>
  <variable name="C(1,30)" index="49003" value="3"/>
  <variable name="C(1,4)" index="49004" value="4"/>
  <variable name="C(6,29)" index="49025" value="1"/>
  <variable name="C(6,23)" index="49026" value="2"/>
  <variable name="C(6,24)" index="49027" value="3"/>
  <variable name="C(9,1)" index="49040" value="1"/>
  <variable name="C(11,3)" index="49050" value="1"/>
  <variable name="C(12,5)" index="49055" value="1"/>
  <variable name="C(15,8)" index="49066" value="1"/>
  <variable name="C(16,9)" index="49069" value="1"/>
  <variable name="C(17,11)" index="49072" value="1"/>
  <variable name="C(19,13)" index="49078" value="1"/>
  <variable name="C(20,14)" index="49081" value="1"/>
  <variable name="C(21,15)" index="49084" value="1"/>
  <variable name="C(22,30)" index="49086" value="1"/>
  <variable name="C(22,16)" index="49087" value="2"/>
  <variable name="C(23,17)" index="49090" value="1"/>
  <variable name="C(24,18)" index="49093" value="1"/>
  <variable name="C(25,19)" index="49096" value="1"/>
  <variable name="C(27,22)" index="49105" value="1"/>
  <variable name="C(30,25)" index="49117" value="1"/>
  <variable name="C(33,28)" index="49129" value="1"/>
  <variable name="C(41,8)" index="49161" value="1"/>
  <variable name="C(41,7)" index="49162" value="2"/>
  <variable name="C(41,30)" index="49163" value="3"/>
  <variable name="C(41,12)" index="49164" value="4"/>
  <variable name="C(57,7)" index="49248" value="1"/>
  <variable name="C(119,30)" index="49483" value="1"/>
  <variable name="C(119,23)" index="49484" value="1.9999999999999991"/>
  <variable name="C(124,30)" index="49499" value="1"/>
  <variable name="C(124,7)" index="49500" value="2"/>
  <variable name="C(124,6)" index="49501" value="3"/>
  <variable name="C(147,16)" index="49570" value="3"/>
  <variable name="C(153,18)" index="49586" value="3"/>
  <variable name="C(162,30)" index="49615" value="1"/>
  <variable name="C(234,24)" index="49858" value="1"/>
  <variable name="C(234,23)" index="49859" value="2"/>
  <variable name="C(234,27)" index="49860" value="3"/>
  <variable name="C(251,23)" index="49924" value="1"/>
  <variable name="C(251,29)" index="49925" value="2"/>
  <variable name="C(253,23)" index="49930" value="1"/>
  <variable name="C(253,21)" index="49931" value="2"/>
  <variable name="C(253,2)" index="49932" value="3"/>
  <variable name="C(296,23)" index="50098" value="1"/>
  <variable name="C(296,26)" index="50099" value="2"/>
 </variables>
</CPLEXSolution>
